110
0 59 38 104 47 62 13 74 25 105 
78 40 44 75 17 56 63 52 43 7 
84 88 93 106 1 16 20 55 10 51 
31 87 29 95 77 97 21 50 24 103 
26 69 76 86 3 83 98 30 66 41 
54 82 58 2 57 81 11 61 89 37 
15 28 91 27 79 71 102 67 34 90 
39 53 36 48 23 92 109 45 107 33 
108 68 4 32 12 70 22 6 65 49 
94 64 101 14 60 42 73 5 99 19 
46 80 72 100 96 85 9 35 8 18 
